c Read 784 clauses.  294 variables
c Breaking ties randomly with seed 1
c Placed 784 terms into 139 buckets.
c Bucket 6 Reduced to term with 7 nodes
c Bucket 12 Reduced to term with 7 nodes
c Bucket 18 Reduced to term with 7 nodes
c Bucket 24 Reduced to term with 11 nodes
c Bucket 30 Reduced to term with 7 nodes
c Bucket 36 Reduced to term with 9 nodes
c Bucket 42 Reduced to term with 7 nodes
c Bucket 48 Reduced to term with 7 nodes
c Bucket 54 Reduced to term with 7 nodes
c Bucket 60 Reduced to term with 9 nodes
c Bucket 66 Reduced to term with 7 nodes
c Bucket 72 Reduced to term with 9 nodes
c Bucket 78 Reduced to term with 13 nodes
c Bucket 84 Reduced to term with 9 nodes
c Bucket 90 Reduced to term with 17 nodes
c Bucket 96 Reduced to term with 7 nodes
c Bucket 102 Reduced to term with 9 nodes
c Bucket 108 Reduced to term with 13 nodes
c Bucket 114 Reduced to term with 13 nodes
c Bucket 120 Reduced to term with 11 nodes
c Bucket 126 Reduced to term with 15 nodes
c Bucket 132 Reduced to term with 17 nodes
c Bucket 138 Reduced to term with 37 nodes
c Bucket 144 Reduced to term with 47 nodes
c Bucket 150 Reduced to term with 65 nodes
c Bucket 156 Reduced to term with 41 nodes
c Bucket 162 Reduced to term with 7 nodes
c Bucket 168 Reduced to term with 47 nodes
c Bucket 174 Reduced to term with 9 nodes
c Bucket 180 Reduced to term with 113 nodes
c Bucket 186 Reduced to term with 15 nodes
c Bucket 192 Reduced to term with 89 nodes
c Bucket 228 Reduced to term with 11 nodes
s UNSATISFIABLE

c Cache statistics
c ----------------
c Unique Access:  19193
c Unique Chain:   564
c Unique Hit:     3516
c Unique Miss:    15321
c => Hit rate =   0.19
c Operator Hits:  18431
c Operator Miss:  24143
c => Hit rate =   0.43
c Swap count =    0

c BDD statistics
c ----------------
c Total BDD nodes produced: 15321
c Input variables: 294
c Input clauses: 784
c Total clauses: 93362
c Unused+non-BDD clause IDs: 3713 (4.0%)
c Maximum live clauses: 69657
c Deleted clauses: 92578
c Final live clauses: 784
c Total variables: 15613
c Elapsed seconds: 0.068
-rw-r--r--  1 bryant  staff  3839776 Mar 10 23:07 chew-100-123456.lrat
c parsed a formula with 294 variables and 784 clauses
c VERIFIED
c allocated 1024 305149 2940
c Added clauses = 93362.  Deleted clauses = 23705.  Max live clauses = 69657
c verification time = 0.06 secs
